p cnf 30 60
-1 2 3 5 6 7 8 9 10 11 12 13 14 21 22 23 24 26 0 
-2 1 3 5 6 7 8 9 10 11 12 13 14 21 22 23 24 26 0 
-2 1 3 5 6 7 8 9 10 11 12 13 14 21 22 23 24 27 0 
-3 1 2 5 6 7 8 9 10 11 12 13 14 21 22 23 24 28 0 
-4 26 0 
-4 29 0 
-4 28 0 
-4 27 0 
-5 1 2 3 6 7 8 9 10 11 12 13 14 21 22 23 24 26 0 
-5 1 2 3 6 7 8 9 10 11 12 13 14 21 22 23 24 30 0 
-5 1 2 3 6 7 8 9 10 11 12 13 14 21 22 23 24 27 0 
-6 1 2 3 5 7 8 9 10 11 12 13 14 21 22 23 24 27 0 
-7 1 2 3 5 6 8 9 10 11 12 13 14 21 22 23 24 27 0 
-6 1 2 3 5 7 8 9 10 11 12 13 14 21 22 23 24 28 0 
-8 1 2 3 5 6 7 9 10 11 12 13 14 21 22 23 24 27 0 
-6 1 2 3 5 7 8 9 10 11 12 13 14 21 22 23 24 30 0 
-8 1 2 3 5 6 7 9 10 11 12 13 14 21 22 23 24 30 0 
-7 1 2 3 5 6 8 9 10 11 12 13 14 21 22 23 24 30 0 
-6 1 2 3 5 7 8 9 10 11 12 13 14 21 22 23 24 26 0 
-7 1 2 3 5 6 8 9 10 11 12 13 14 21 22 23 24 26 0 
-8 1 2 3 5 6 7 9 10 11 12 13 14 21 22 23 24 26 0 
-3 1 2 5 6 7 8 9 10 11 12 13 14 21 22 23 24 26 0 
-9 1 2 3 5 6 7 8 10 11 12 13 14 21 22 23 24 26 0 
-10 1 2 3 5 6 7 8 9 11 12 13 14 21 22 23 24 26 0 
-11 1 2 3 5 6 7 8 9 10 12 13 14 21 22 23 24 26 0 
-12 1 2 3 5 6 7 8 9 10 11 13 14 21 22 23 24 26 0 
-13 1 2 3 5 6 7 8 9 10 11 12 14 21 22 23 24 26 0 
-10 1 2 3 5 6 7 8 9 11 12 13 14 21 22 23 24 28 0 
-9 1 2 3 5 6 7 8 10 11 12 13 14 21 22 23 24 27 0 
-13 1 2 3 5 6 7 8 9 10 11 12 14 21 22 23 24 30 0 
-10 1 2 3 5 6 7 8 9 11 12 13 14 21 22 23 24 30 0 
-10 1 2 3 5 6 7 8 9 11 12 13 14 21 22 23 24 27 0 
-9 1 2 3 5 6 7 8 10 11 12 13 14 21 22 23 24 30 0 
-13 1 2 3 5 6 7 8 9 10 11 12 14 21 22 23 24 27 0 
-2 1 3 5 6 7 8 9 10 11 12 13 14 21 22 23 24 30 0 
-14 1 2 3 5 6 7 8 9 10 11 12 13 21 22 23 24 26 0 
-3 1 2 5 6 7 8 9 10 11 12 13 14 21 22 23 24 30 0 
-3 1 2 5 6 7 8 9 10 11 12 13 14 21 22 23 24 27 0 
-15 27 0 
-16 17 18 20 26 0 
-17 16 18 20 26 0 
-18 16 17 20 26 0 
-19 26 0 
-20 16 17 18 29 0 
-15 28 0 
-19 27 0 
-21 1 2 3 5 6 7 8 9 10 11 12 13 14 22 23 24 26 0 
-22 1 2 3 5 6 7 8 9 10 11 12 13 14 21 23 24 26 0 
-23 1 2 3 5 6 7 8 9 10 11 12 13 14 21 22 24 26 0 
-22 1 2 3 5 6 7 8 9 10 11 12 13 14 21 23 24 30 0 
-23 1 2 3 5 6 7 8 9 10 11 12 13 14 21 22 24 30 0 
-21 1 2 3 5 6 7 8 9 10 11 12 13 14 22 23 24 30 0 
-22 1 2 3 5 6 7 8 9 10 11 12 13 14 21 23 24 27 0 
-23 1 2 3 5 6 7 8 9 10 11 12 13 14 21 22 24 27 0 
-21 1 2 3 5 6 7 8 9 10 11 12 13 14 22 23 24 27 0 
-24 1 2 3 5 6 7 8 9 10 11 12 13 14 21 22 23 26 0 
-15 30 0 
-15 26 0 
-23 1 2 3 5 6 7 8 9 10 11 12 13 14 21 22 24 28 0 
-25 30 0 
